p cnf 19 11
e 1 2 0
a 3 4 0
e 5 6 0
a 7 0
e 8 9 0
a 10 11 0
e 12 0
a 13 14 15 0
e 16 17 18 0
a 19 0
-15 4 7 0
11 -12 0
-2 -4 -12 -7 0
10 -6 0
5 9 -1 -7 0
-16 -2 19 -9 -14 0
-12 -17 -15 -19 0
-3 -16 -15 0
14 6 16 3 0
-9 11 -15 0
11 -3 12 -16 -13 0
